
--- Job assignment2.gms Start 09/23/25 22:21:19 51.1.0 2d039df5 DAX-DAC arm 64bit/macOS
--- Applying:
    /Library/Frameworks/GAMS.framework/Versions/51/Resources/gmsprmun.txt
--- GAMS Parameters defined
    Input /Users/chrisat/Development/school/tek5410/assignment2/assignment2.gms
    PageSize 0
    ScrDir /Users/chrisat/Development/school/tek5410/assignment2/225a/
    SysDir /Library/Frameworks/GAMS.framework/Versions/51/Resources/
    LogOption 3
    AppendLog 1
    ErrMsg 1
    ErrorLog 99
    IDE 1
    LstTitleLeftAligned 1
Licensee: GAMS Demo, for EULA and demo limitations see   G250826+0003Cc-GEN
          https://www.gams.com/latest/docs/UG%5FLicense.html         DC0000
          /Library/Frameworks/GAMS.framework/Versions/51/Resources/gamslice.txt
          v:2                                                              
          Demo license for demonstration and instructional purposes only
System information: 14 physical cores and 48 Gb physical memory detected
GAMS 51.1.0   Copyright (C) 1987-2025 GAMS Development. All rights reserved
--- Starting compilation
--- assignment2.gms(37) 3 Mb
--- Starting execution: elapsed 0:00:00.002
--- Generating LP model liberland_energy
--- assignment2.gms(35) 4 Mb
---   5 rows  5 columns  12 non-zeroes
--- Range statistics (absolute non-zero finite values)
--- RHS       [min, max] : [ 2.000E+02, 1.000E+05] - Zero values observed as well
--- Bound     [min, max] : [        NA,        NA] - Zero values observed as well
--- Matrix    [min, max] : [ 1.000E+00, 4.000E+05]
--- Executing CPLEX (Solvelink=2): elapsed 0:00:00.004

IBM ILOG CPLEX   51.1.0 2d039df5 Sep 13, 2025          DAC arm 64bit/macOS    

*** This solver runs with a demo license. No commercial use.
--- GMO setup time: 0.00s
--- GMO memory 0.50 Mb (peak 0.50 Mb)
--- Dictionary memory 0.00 Mb
--- Cplex 22.1.2.0 link memory 0.00 Mb (peak 0.00 Mb)
--- Starting Cplex

Version identifier: 22.1.2.0 | 2024-12-02 | 8bd2200c8
CPXPARAM_Advance                                 0
CPXPARAM_Simplex_Display                         2
CPXPARAM_MIP_Display                             4
CPXPARAM_MIP_Pool_Capacity                       0
3036                                             1
CPXPARAM_MIP_Tolerances_AbsMIPGap                0
Tried aggregator 1 time.
LP Presolve eliminated 4 rows and 5 columns.
All rows and columns eliminated.
Presolve time = 0.00 sec. (0.00 ticks)

--- LP status (1): optimal.
--- Cplex Time: 0.00sec (det. 0.00 ticks)


Optimal solution found
Objective:    646000000.000000

--- Reading solution for model liberland_energy
--- Executing after solve: elapsed 0:00:00.022
--- assignment2.gms(37) 4 Mb
*** Status: Normal completion
--- Job assignment2.gms Stop 09/23/25 22:21:19 elapsed 0:00:00.022
